; benchmark generated from python API
(set-info :status unknown)
(declare-fun x_days () Int)
(assert
 (>= x_days (- 36584)))
(assert
 (<= x_days 36829))
(assert
 (>= x_days 8341))
(assert
 (let (($x29 (or (and (= (mod 2000 4) 0) (and (distinct (mod 2000 100) 0) true)) (= (mod 2000 400) 0))))
(let ((?x36 (ite (= 3 2) (ite $x29 31 31) (ite (= 3 1) (ite $x29 0 0) 0))))
(let ((?x40 (ite $x29 60 59)))
(let ((?x41 (ite (= 3 3) ?x40 ?x36)))
(let ((?x46 (ite (= 3 4) (ite $x29 91 90) ?x41)))
(let ((?x52 (ite (= 3 5) (ite $x29 121 120) ?x46)))
(let ((?x58 (ite (= 3 6) (ite $x29 152 151) ?x52)))
(let ((?x64 (ite (= 3 7) (ite $x29 182 181) ?x58)))
(let ((?x70 (ite (= 3 8) (ite $x29 213 212) ?x64)))
(let ((?x76 (ite (= 3 9) (ite $x29 244 243) ?x70)))
(let ((?x82 (ite (= 3 10) (ite $x29 274 273) ?x76)))
(let ((?x88 (ite (= 3 11) (ite $x29 305 304) ?x82)))
(let ((?x16 (- (+ (* 365 (- 2000 1)) (div (- 2000 1) 4)) (div (- 2000 1) 100))))
(let ((?x95 (+ (+ ?x16 (div (- 2000 1) 400)) (ite (= 3 12) (ite $x29 335 334) ?x88))))
(let ((?x97 (+ ?x95 (- 1 1))))
(let ((?x568 (+ x_days ?x97)))
(let ((?x512 (mod ?x568 146097)))
(let ((?x446 (div ?x512 36524)))
(let ((?x394 (ite (<= 4 ?x446) 3 ?x446)))
(let ((?x397 (- ?x512 (* ?x394 36524))))
(let ((?x115 (mod ?x397 1461)))
(let ((?x175 (div ?x115 365)))
(let ((?x120 (ite (<= 4 ?x175) 3 ?x175)))
(let ((?x390 (+ (+ (* (div ?x568 146097) 400) (* ?x394 100)) (* (div ?x397 1461) 4))))
(let ((?x607 (+ (+ ?x390 ?x120) 1)))
(let (($x358 (or (and (= (mod ?x607 4) 0) (and (distinct (mod ?x607 100) 0) true)) (= (mod ?x607 400) 0))))
(let ((?x447 (- ?x115 (* ?x120 365))))
(let ((?x496 (ite $x358 31 31)))
(let (($x107 (>= ?x447 ?x496)))
(let ((?x182 (ite $x107 (+ (- ?x447 ?x496) 1) (+ (- ?x447 (ite $x358 0 0)) 1))))
(let ((?x471 (ite $x358 60 59)))
(let (($x321 (>= ?x447 ?x471)))
(let ((?x849 (ite $x358 91 90)))
(let (($x313 (>= ?x447 ?x849)))
(let ((?x330 (ite $x313 (+ (- ?x447 ?x849) 1) (ite $x321 (+ (- ?x447 ?x471) 1) ?x182))))
(let ((?x153 (ite $x358 121 120)))
(let (($x511 (>= ?x447 ?x153)))
(let ((?x298 (ite $x358 152 151)))
(let (($x566 (>= ?x447 ?x298)))
(let ((?x693 (ite $x566 (+ (- ?x447 ?x298) 1) (ite $x511 (+ (- ?x447 ?x153) 1) ?x330))))
(let ((?x750 (ite $x358 182 181)))
(let (($x266 (>= ?x447 ?x750)))
(let ((?x117 (ite $x358 213 212)))
(let (($x554 (>= ?x447 ?x117)))
(let ((?x631 (ite $x554 (+ (- ?x447 ?x117) 1) (ite $x266 (+ (- ?x447 ?x750) 1) ?x693))))
(let ((?x110 (ite $x358 244 243)))
(let (($x337 (>= ?x447 ?x110)))
(let ((?x625 (ite $x358 274 273)))
(let (($x392 (>= ?x447 ?x625)))
(let ((?x740 (ite $x392 (+ (- ?x447 ?x625) 1) (ite $x337 (+ (- ?x447 ?x110) 1) ?x631))))
(let ((?x477 (ite $x358 305 304)))
(let (($x453 (>= ?x447 ?x477)))
(let ((?x489 (ite $x358 335 334)))
(let (($x154 (>= ?x447 ?x489)))
(let ((?x378 (ite $x154 (+ (- ?x447 ?x489) 1) (ite $x453 (+ (- ?x447 ?x477) 1) ?x740))))
(let ((?x461 (ite $x511 5 (ite $x313 4 (ite $x321 3 (ite $x107 2 1))))))
(let ((?x514 (ite $x337 9 (ite $x554 8 (ite $x266 7 (ite $x566 6 ?x461))))))
(let ((?x437 (+ (ite $x154 12 (ite $x453 11 (ite $x392 10 ?x514))) (+ (* 0 12) 1))))
(let ((?x738 (- ?x437 1)))
(let ((?x735 (+ (mod ?x738 12) 1)))
(let ((?x606 (ite (or (= ?x735 4) (= ?x735 6) (= ?x735 9) (= ?x735 11)) 30 31)))
(let (($x226 (and (= (mod (+ ?x607 (+ 0 (div ?x738 12))) 4) 0) (and (distinct (mod (+ ?x607 (+ 0 (div ?x738 12))) 100) 0) true))))
(let ((?x668 (ite (or $x226 (= (mod (+ ?x607 (+ 0 (div ?x738 12))) 400) 0)) 29 28)))
(let ((?x357 (ite (= ?x735 2) ?x668 ?x606)))
(let ((?x217 (ite (> 1 ?x378) 1 (ite (> ?x378 ?x357) ?x357 ?x378))))
(let ((?x119 (ite (> 1 ?x217) 1 (ite (> ?x217 ?x357) ?x357 ?x217))))
(let ((?x533 (+ ?x607 (+ 0 (div ?x738 12)))))
(let ((?x150 (+ ?x533 (* (div 0 146097) 400))))
(let (($x622 (or (and (= (mod ?x150 4) 0) (and (distinct (mod ?x150 100) 0) true)) (= (mod ?x150 400) 0))))
(let ((?x128 (ite (= 2 ?x735) (ite $x622 31 31) (ite (= 1 ?x735) (ite $x622 0 0) 0))))
(let ((?x550 (ite (= 4 ?x735) (ite $x622 91 90) (ite (= 3 ?x735) (ite $x622 60 59) ?x128))))
(let ((?x135 (ite (= 6 ?x735) (ite $x622 152 151) (ite (= 5 ?x735) (ite $x622 121 120) ?x550))))
(let ((?x3219 (ite (= 8 ?x735) (ite $x622 213 212) (ite (= 7 ?x735) (ite $x622 182 181) ?x135))))
(let ((?x180 (ite (= 10 ?x735) (ite $x622 274 273) (ite (= 9 ?x735) (ite $x622 244 243) ?x3219))))
(let ((?x774 (ite (= 12 ?x735) (ite $x622 335 334) (ite (= 11 ?x735) (ite $x622 305 304) ?x180))))
(let ((?x788 (- (+ (* 365 (- ?x150 1)) (div (- ?x150 1) 4)) (div (- ?x150 1) 100))))
(let ((?x134 (- (+ (+ (+ ?x788 (div (- ?x150 1) 400)) ?x774) (- ?x119 1)) ?x97)))
(let ((?x3207 (+ (+ ?x134 (mod 0 146097)) ?x97)))
(let ((?x3026 (mod ?x3207 146097)))
(let ((?x645 (div ?x3026 36524)))
(let ((?x1174 (ite (<= 4 ?x645) 3 ?x645)))
(let ((?x3347 (- ?x3026 (* ?x1174 36524))))
(let ((?x452 (mod ?x3347 1461)))
(let ((?x614 (div ?x452 365)))
(let ((?x105 (ite (<= 4 ?x614) 3 ?x614)))
(let ((?x2109 (+ (+ (* (div ?x3207 146097) 400) (* ?x1174 100)) (* (div ?x3347 1461) 4))))
(let ((?x460 (+ (+ ?x2109 ?x105) 1)))
(let (($x616 (or (and (= (mod ?x460 4) 0) (and (distinct (mod ?x460 100) 0) true)) (= (mod ?x460 400) 0))))
(let ((?x643 (- ?x452 (* ?x105 365))))
(let ((?x619 (ite $x616 31 31)))
(let (($x204 (>= ?x643 ?x619)))
(let ((?x651 (ite $x204 (+ (- ?x643 ?x619) 1) (+ (- ?x643 (ite $x616 0 0)) 1))))
(let ((?x488 (ite $x616 60 59)))
(let (($x3354 (>= ?x643 ?x488)))
(let ((?x1855 (ite $x616 91 90)))
(let (($x3365 (>= ?x643 ?x1855)))
(let ((?x152 (ite $x3365 (+ (- ?x643 ?x1855) 1) (ite $x3354 (+ (- ?x643 ?x488) 1) ?x651))))
(let ((?x551 (ite $x616 121 120)))
(let (($x116 (>= ?x643 ?x551)))
(let ((?x129 (ite $x616 152 151)))
(let (($x2605 (>= ?x643 ?x129)))
(let ((?x385 (ite $x2605 (+ (- ?x643 ?x129) 1) (ite $x116 (+ (- ?x643 ?x551) 1) ?x152))))
(let ((?x386 (ite $x616 182 181)))
(let (($x1146 (>= ?x643 ?x386)))
(let ((?x181 (ite $x616 213 212)))
(let (($x602 (>= ?x643 ?x181)))
(let ((?x3209 (ite $x602 (+ (- ?x643 ?x181) 1) (ite $x1146 (+ (- ?x643 ?x386) 1) ?x385))))
(let ((?x2343 (ite $x616 244 243)))
(let (($x346 (>= ?x643 ?x2343)))
(let ((?x617 (ite $x616 274 273)))
(let (($x2600 (>= ?x643 ?x617)))
(let ((?x611 (ite $x2600 (+ (- ?x643 ?x617) 1) (ite $x346 (+ (- ?x643 ?x2343) 1) ?x3209))))
(let ((?x1170 (ite $x616 305 304)))
(let (($x1017 (>= ?x643 ?x1170)))
(let ((?x3325 (ite $x616 335 334)))
(let (($x362 (>= ?x643 ?x3325)))
(let ((?x2832 (ite $x362 (+ (- ?x643 ?x3325) 1) (ite $x1017 (+ (- ?x643 ?x1170) 1) ?x611))))
(let (($x261 (= 0 0)))
(let (($x1068 (and (= (mod (ite $x261 ?x533 ?x460) 4) 0) (and (distinct (mod (ite $x261 ?x533 ?x460) 100) 0) true))))
(let (($x374 (or $x1068 (= (mod (ite $x261 ?x533 ?x460) 400) 0))))
(let ((?x729 (ite $x116 5 (ite $x3365 4 (ite $x3354 3 (ite $x204 2 1))))))
(let ((?x502 (ite $x346 9 (ite $x602 8 (ite $x1146 7 (ite $x2605 6 ?x729))))))
(let ((?x660 (ite $x261 ?x735 (ite $x362 12 (ite $x1017 11 (ite $x2600 10 ?x502))))))
(let ((?x546 (ite (= 2 ?x660) (ite $x374 31 31) (ite (= 1 ?x660) (ite $x374 0 0) 0))))
(let ((?x215 (ite (= 4 ?x660) (ite $x374 91 90) (ite (= 3 ?x660) (ite $x374 60 59) ?x546))))
(let ((?x3280 (ite (= 6 ?x660) (ite $x374 152 151) (ite (= 5 ?x660) (ite $x374 121 120) ?x215))))
(let ((?x478 (ite (= 8 ?x660) (ite $x374 213 212) (ite (= 7 ?x660) (ite $x374 182 181) ?x3280))))
(let ((?x1693 (ite (= 10 ?x660) (ite $x374 274 273) (ite (= 9 ?x660) (ite $x374 244 243) ?x478))))
(let ((?x3063 (ite (= 12 ?x660) (ite $x374 335 334) (ite (= 11 ?x660) (ite $x374 305 304) ?x1693))))
(let ((?x640 (+ (* 365 (- (ite $x261 ?x533 ?x460) 1)) (div (- (ite $x261 ?x533 ?x460) 1) 4))))
(let ((?x2019 (+ (- ?x640 (div (- (ite $x261 ?x533 ?x460) 1) 100)) (div (- (ite $x261 ?x533 ?x460) 1) 400))))
(let (($x2647 (<= (- (+ (+ ?x2019 ?x3063) (- (ite $x261 ?x119 ?x2832) 1)) ?x97) (+ x_days 31))))
(not $x2647))))))))))))))))))))))))))))))))))))))))))))))))))))))))))))))))))))))))))))))))))))))))))))))))))))))))))))))))))))))))))))))))))))))
(check-sat)
